Maximize
  - 39 x0 + 0 x1 + 0 x2 + 0 x3 + 0 x4 + 0 x5 + 0 x6 + 0 x7 + 0 x8 + 0 x9
   + 0 x10 + 0 x11 + 0 x12 - 34 x13 - 18 x14 + 20 x15 + 0 x16 + 0 x17
   + 0 x18 - 42 x19 + 0 x20 + 0 x21 + 0 x22 + 0 x23 + 27 x24 + 0 x25
   + 26 x26 + 0 x27 + 0 x28 + 0 x29 - 49 x30 - 35 x31 + 32 x32 + 0 x33
   + 0 x34 + 0 x35 + 0 x36 + 0 x37 - 23 x38 + 0 x39 + [ 3 x0 ^2
   - 12 x0 * x3 - 10 x0 * x8 + 66 x0 * x10 + 34 x0 * x17 - 88 x0 * x21
   + 46 x0 * x25 + 78 x0 * x26 - 32 x0 * x27 + 42 x0 * x31 + 80 x0 * x34
   + 66 x0 * x38 - 36 x1 * x3 - 62 x1 * x11 - 18 x1 * x13 - 58 x1 * x19
   + 88 x1 * x20 - 44 x1 * x23 - 72 x1 * x30 + 26 x1 * x34 - 64 x1 * x36
   - 82 x1 * x37 - 94 x1 * x39 + 64 x2 * x5 - 42 x2 * x7 + 20 x2 * x10
   - 48 x2 * x13 - 84 x2 * x21 + 2 x2 * x23 - 30 x2 * x24 + 42 x2 * x36
   + 21 x3 ^2 + 82 x3 * x10 - 22 x3 * x11 - 92 x3 * x12 - 48 x3 * x13
   + 62 x3 * x17 - 34 x3 * x21 + 14 x3 * x22 - 20 x3 * x28 + 44 x3 * x29
   - 6 x3 * x30 - 6 x3 * x31 - 24 x3 * x38 - 35 x4 ^2 + 70 x4 * x5
   + 80 x4 * x11 - 98 x4 * x12 - 8 x4 * x13 + 94 x4 * x17 + 78 x4 * x22
   - 34 x4 * x23 - 58 x4 * x24 - 64 x4 * x25 - 20 x4 * x26 - 96 x4 * x29
   + 30 x4 * x36 + 2 x4 * x39 - 70 x5 * x9 + 86 x5 * x13 - 96 x5 * x20
   - 16 x5 * x21 - 4 x5 * x23 + 30 x5 * x26 + 54 x5 * x28 - 96 x5 * x29
   - 56 x5 * x33 + 46 x5 * x36 + 84 x6 * x9 + 82 x6 * x10 - 84 x6 * x12
   + 80 x6 * x17 + 94 x6 * x18 + 6 x6 * x23 + 28 x6 * x24 - 8 x6 * x29
   + 82 x6 * x31 + 78 x6 * x32 - 94 x6 * x36 + 14 x7 * x8 + 20 x7 * x10
   - 32 x7 * x12 - 72 x7 * x16 + 82 x7 * x20 - 92 x7 * x27 - 34 x7 * x30
   + 76 x7 * x32 + 10 x7 * x36 - 18 x7 * x39 - 5 x8 ^2 + 76 x8 * x13
   + 28 x8 * x20 + 60 x8 * x22 + 92 x8 * x31 + 50 x8 * x33 - 96 x8 * x34
   + 62 x9 * x11 + 64 x9 * x12 + 34 x9 * x13 + 16 x9 * x19 + 76 x9 * x20
   + 50 x9 * x28 + 14 x9 * x33 + 80 x9 * x39 - 56 x10 * x11 + 18 x10 * x14
   + 38 x10 * x15 - 72 x10 * x25 - 10 x10 * x28 - 6 x10 * x29
   + 54 x10 * x30 - 90 x10 * x31 + 70 x10 * x37 + 20 x11 ^2 + 42 x11 * x13
   + 60 x11 * x20 + 36 x11 * x25 + 94 x11 * x38 + 98 x11 * x39
   + 80 x12 * x13 - 48 x12 * x14 - 14 x12 * x15 + 50 x12 * x18
   - 70 x12 * x23 - 40 x12 * x24 + 30 x12 * x30 - 68 x12 * x33
   + 2 x12 * x35 + 76 x12 * x36 + 62 x12 * x39 + 96 x13 * x14
   + 14 x13 * x15 - 26 x13 * x16 - 18 x13 * x18 - 70 x13 * x20
   + 52 x13 * x24 + 32 x13 * x25 + 72 x13 * x28 - 42 x13 * x30
   + 18 x13 * x32 + 22 x13 * x36 + 4 x13 * x37 - 4 x14 * x18 - 14 x14 * x25
   + 60 x14 * x32 + 40 x15 ^2 + 80 x15 * x22 - 84 x15 * x23 + 20 x15 * x28
   - 8 x15 * x30 - 98 x15 * x33 - 94 x15 * x36 + 58 x15 * x39
   - 50 x16 * x17 + 74 x16 * x20 + 34 x16 * x26 - 26 x16 * x27
   + 48 x16 * x28 + 10 x16 * x29 + 74 x16 * x35 - 94 x17 * x24
   - 26 x17 * x27 + 86 x17 * x28 - 2 x17 * x29 - 22 x17 * x30
   - 74 x17 * x35 + 88 x17 * x36 - 6 x17 * x38 - 50 x18 * x19
   + 48 x18 * x24 - 38 x18 * x26 - 52 x18 * x27 + 36 x19 * x20
   - 30 x19 * x23 + 48 x19 * x28 - 8 x19 * x30 - 68 x19 * x31
   + 34 x20 * x24 + 10 x20 * x28 + 56 x20 * x29 - 70 x20 * x30
   + 26 x20 * x32 - 88 x20 * x35 - 84 x20 * x38 + 36 x21 ^2 - 66 x21 * x26
   - 18 x21 * x29 + 20 x21 * x32 + 80 x21 * x33 - 60 x21 * x34
   + 62 x21 * x38 - 36 x21 * x39 - 18 x22 * x23 + 70 x22 * x24
   + 58 x22 * x27 - 2 x22 * x29 + 8 x22 * x33 + 88 x23 * x29 + 44 x23 * x30
   + 38 x23 * x32 + 32 x23 * x34 + 96 x23 * x35 - 22 x23 * x38 - 16 x24 ^2
   + 22 x24 * x30 - 2 x24 * x31 - 26 x24 * x32 - 92 x24 * x33
   + 76 x24 * x34 + 4 x24 * x39 - 20 x25 * x30 + 16 x26 * x32
   + 42 x26 * x39 + 38 x27 ^2 - 48 x27 * x30 + 84 x27 * x33 - 18 x27 * x36
   - 26 x27 * x37 + 94 x27 * x39 + 64 x28 * x33 + 74 x28 * x39 + 44 x29 ^2
   - 12 x29 * x35 - 66 x29 * x38 - 66 x30 * x32 + 82 x30 * x36
   + 72 x30 * x37 + 22 x30 * x38 + 52 x31 * x32 - 24 x31 * x33
   + 54 x31 * x34 - 16 x31 * x38 - 33 x32 ^2 - 24 x32 * x34 + 20 x32 * x38
   + 42 x33 * x36 + 76 x33 * x37 + 98 x34 * x35 - 98 x34 * x38
   - 76 x34 * x39 - 70 x35 * x38 + 94 x35 * x39 - 49 x38 ^2 + 4 x38 * x39
   + 42 x39 ^2 ] / 2 
Subject To
Bounds
 x0 <= 1
 x1 <= 1
 x2 <= 1
 x3 <= 1
 x4 <= 1
 x5 <= 1
 x6 <= 1
 x7 <= 1
 x8 <= 1
 x9 <= 1
 x10 <= 1
 x11 <= 1
 x12 <= 1
 x13 <= 1
 x14 <= 1
 x15 <= 1
 x16 <= 1
 x17 <= 1
 x18 <= 1
 x19 <= 1
 x20 <= 1
 x21 <= 1
 x22 <= 1
 x23 <= 1
 x24 <= 1
 x25 <= 1
 x26 <= 1
 x27 <= 1
 x28 <= 1
 x29 <= 1
 x30 <= 1
 x31 <= 1
 x32 <= 1
 x33 <= 1
 x34 <= 1
 x35 <= 1
 x36 <= 1
 x37 <= 1
 x38 <= 1
 x39 <= 1
End
